NAME          AFIRO   
ROWS
 N  OBJROW
 L  X21
 L  X17
 E  X20
 L  X46
 L  X47
 L  X49
 L  X51
COLUMNS
*   4 variables spanning 10-22-26-36-40 
    Y01a      OBJROW     -2.           X21       1.4         
    Y01a      X47       1.          
    Y01b      OBJROW     -1.5          X21       1.4         
    Y01b      X47       1.          
    Y01c      OBJROW     -1.           X21       1.4         
    Y01c      X47       1.          
    Y01d      OBJROW     0.1           X21       1.4         
    Y01d      X47       1.          
*   4 variables spanning 0-200-250-300-400
    Y02a      OBJROW     -1.5          X20       0.5763688761
    Y02a      X49        -1.        
    Y02b      OBJROW     -1.4          X20       0.5763688761
    Y02b      X49        -1.        
    Y02c      OBJROW     -1.3          X20       0.5763688761
    Y02c      X49        -1.        
    Y02d      OBJROW      0.1          X20       0.5763688761
    Y02d      X49        -1.        
    X01       OBJROW     -0.4          X21        -1.        
    X01       X20       0.1239193084
    X03       OBJROW    0.4            X21       1.          
    X03       X46        -1.        
    X06       X17       1.             X47        -1.        
    X06       X49       0.301          X51       1.06        
    X07       X20       0.9822972417   X47        -1.        
    X07       X49       0.313          X51       1.06        
    X08       X20       0.9913544669   X47        -1.        
    X08       X49       0.313          X51       0.96        
    X09       X20       1.             X47        -1.        
    X09       X49       0.326          X51       0.86        
    X10       X17        -1.           X20       0.9732400165
    X22       X20        -0.41169205   X46       0.109       
RHS
    RHS       X17       80.            X49       44.         
    RHS       X51       300.        
BOUNDS
 LO BOUND     Y01a      10.
 UP BOUND     Y01a      12.
 UP BOUND     Y01b      4.
 UP BOUND     Y01c      10.
 UP BOUND     Y01d      4.
 UP BOUND     Y02a      200.
 UP BOUND     Y02b      50.
 UP BOUND     Y02c      50.
 UP BOUND     Y02d      100.
 UP BOUND     X01       80.         
 UP BOUND     X22       500.        
ENDATA
